(set-logic QF_LRA)
(declare-fun X0 () Real )
(declare-fun Y0 () Real )
(declare-fun X1 () Real )
(declare-fun Y1 () Real )
(declare-fun X2 () Real )
(declare-fun Y2 () Real )
(declare-fun X3 () Real )
(declare-fun Y3 () Real )
(declare-fun X4 () Real )
(declare-fun Y4 () Real )
(declare-fun X5 () Real )
(declare-fun Y5 () Real )
(declare-fun Z () Real )
(assert ( and  
( or ( <= ( + X0 68 ) X1 )  ( <= ( + X1 2 ) X0 )  ( <= ( + Y0 84 ) Y1 )  ( <= ( + Y1 22 ) Y0 )  )
( or ( <= ( + X0 68 ) X2 )  ( <= ( + X2 90 ) X0 )  ( <= ( + Y0 84 ) Y2 )  ( <= ( + Y2 57 ) Y0 )  )
( or ( <= ( + X0 68 ) X3 )  ( <= ( + X3 99 ) X0 )  ( <= ( + Y0 84 ) Y3 )  ( <= ( + Y3 43 ) Y0 )  )
( or ( <= ( + X0 68 ) X4 )  ( <= ( + X4 83 ) X0 )  ( <= ( + Y0 84 ) Y4 )  ( <= ( + Y4 89 ) Y0 )  )
( or ( <= ( + X0 68 ) X5 )  ( <= ( + X5 11 ) X0 )  ( <= ( + Y0 84 ) Y5 )  ( <= ( + Y5 72 ) Y0 )  )
( or ( <= ( + X1 2 ) X2 )  ( <= ( + X2 90 ) X1 )  ( <= ( + Y1 22 ) Y2 )  ( <= ( + Y2 57 ) Y1 )  )
( or ( <= ( + X1 2 ) X3 )  ( <= ( + X3 99 ) X1 )  ( <= ( + Y1 22 ) Y3 )  ( <= ( + Y3 43 ) Y1 )  )
( or ( <= ( + X1 2 ) X4 )  ( <= ( + X4 83 ) X1 )  ( <= ( + Y1 22 ) Y4 )  ( <= ( + Y4 89 ) Y1 )  )
( or ( <= ( + X1 2 ) X5 )  ( <= ( + X5 11 ) X1 )  ( <= ( + Y1 22 ) Y5 )  ( <= ( + Y5 72 ) Y1 )  )
( or ( <= ( + X2 90 ) X3 )  ( <= ( + X3 99 ) X2 )  ( <= ( + Y2 57 ) Y3 )  ( <= ( + Y3 43 ) Y2 )  )
( or ( <= ( + X2 90 ) X4 )  ( <= ( + X4 83 ) X2 )  ( <= ( + Y2 57 ) Y4 )  ( <= ( + Y4 89 ) Y2 )  )
( or ( <= ( + X2 90 ) X5 )  ( <= ( + X5 11 ) X2 )  ( <= ( + Y2 57 ) Y5 )  ( <= ( + Y5 72 ) Y2 )  )
( or ( <= ( + X3 99 ) X4 )  ( <= ( + X4 83 ) X3 )  ( <= ( + Y3 43 ) Y4 )  ( <= ( + Y4 89 ) Y3 )  )
( or ( <= ( + X3 99 ) X5 )  ( <= ( + X5 11 ) X3 )  ( <= ( + Y3 43 ) Y5 )  ( <= ( + Y5 72 ) Y3 )  )
( or ( <= ( + X4 83 ) X5 )  ( <= ( + X5 11 ) X4 )  ( <= ( + Y4 89 ) Y5 )  ( <= ( + Y5 72 ) Y4 )  )
( >= X0 0)
( <= ( + X0 68) Z)
( >= Y0 0)
( <= ( + Y0 84 ) 100)
( >= X1 0)
( <= ( + X1 2) Z)
( >= Y1 0)
( <= ( + Y1 22 ) 100)
( >= X2 0)
( <= ( + X2 90) Z)
( >= Y2 0)
( <= ( + Y2 57 ) 100)
( >= X3 0)
( <= ( + X3 99) Z)
( >= Y3 0)
( <= ( + Y3 43 ) 100)
( >= X4 0)
( <= ( + X4 83) Z)
( >= Y4 0)
( <= ( + Y4 89 ) 100)
( >= X5 0)
( <= ( + X5 11) Z)
( >= Y5 0)
( <= ( + Y5 72 ) 100)
) )
(minimize Z)
(check-sat)
